50
    1   447   437
    2   281   271
    3   263   253
    4   386   376
    5   185   175
    6   387   377
    7   282   272
    8   215   205
    9   175   165
   10   501   491
   11   229   219
   12   292   282
   13   264   254
   14   281   271
   15   467   457
   16   143   133
   17   336   326
   18   470   460
   19   377   367
   20   342   332
   21   367   357
   22   158   148
   23    78    68
   24   346   336
   25    63    53
   26   190   180
   27   327   317
   28    69    59
   29   104    94
   30   278   268
   31   224   214
   32   459   449
   33   468   458
   34   189   179
   35   103    93
   36    57    47
   37   448   438
   38   406   396
   39   325   315
   40   461   451
   41   480   470
   42    53    43
   43    55    45
   44    42    32
   45   215   205
   46   199   189
   47   242   232
   48   183   173
   49   148   138
   50   400   390
8640
